60	1
0 46
0 52
0 55
0 46
0 53
0 52
0 45
0 51
0 55
0 47
0 55
0 47
0 51
0 58
0 59
0 60
0 40
0 53
0 52
0 48
0 48
0 54
0 57
0 45
0 49
0 44
0 57
0 62
0 51
0 46
0 53
0 51
0 48
0 48
0 42
0 57
0 49
0 46
0 59
0 46
0 52
0 42
0 45
0 51
0 53
0 46
0 52
0 39
0 50
0 54
0 57
0 47
0 59
0 56
0 53
0 45
0 50
0 59
0 50
0 62
